n = 20
Q1 = [0 0 16 0 0 6 0 0 0 16 0 6 0 0 0 31 0 0 0 0; 0 0 0 0 0 39 0 0 0 0 49 0 13 0 0 0 0 27 0 0; 0 0 0 0 0 38 23 0 41 0 0 0 0 0 0 0 0 0 30 0; 0 0 0 0 36 0 32 0 0 0 26 32 33 0 41 0 0 0 0 0; 0 0 0 0 0 9 0 20 0 0 0 0 0 0 0 0 41 14 9 0; 0 0 0 0 0 0 0 34 0 0 0 0 0 32 0 0 34 0 0 0; 0 0 0 0 0 0 0 0 0 0 0 16 0 15 14 0 0 0 0 5; 0 0 0 0 0 0 0 0 0 0 47 48 0 0 0 26 0 34 33 32; 0 0 0 0 0 0 0 0 0 0 0 0 0 0 0 0 0 0 0 0; 0 0 0 0 0 0 0 0 0 0 15 19 0 0 36 0 26 0 25 0; 0 0 0 0 0 0 0 0 0 0 0 40 0 42 0 0 0 0 0 0; 0 0 0 0 0 0 0 0 0 0 0 0 0 48 0 0 0 0 0 0; 0 0 0 0 0 0 0 0 0 0 0 0 0 0 0 0 26 0 0 0; 0 0 0 0 0 0 0 0 0 0 0 0 0 0 45 0 7 0 8 0; 0 0 0 0 0 0 0 0 0 0 0 0 0 0 0 0 0 21 0 0; 0 0 0 0 0 0 0 0 0 0 0 0 0 0 0 0 33 0 0 0; 0 0 0 0 0 0 0 0 0 0 0 0 0 0 0 0 0 0 0 0; 0 0 0 0 0 0 0 0 0 0 0 0 0 0 0 0 0 0 0 0; 0 0 0 0 0 0 0 0 0 0 0 0 0 0 0 0 0 0 0 0; 0 0 0 0 0 0 0 0 0 0 0 0 0 0 0 0 0 0 0 0]
Q2 = [0.0 0.0 43.0 0.0 0.0 45.0 0.0 0.0 0.0 48.0 0.0 48.0 0.0 0.0 0.0 6.0 0.0 0.0 0.0 0.0; 0.0 0.0 0.0 0.0 0.0 8.0 0.0 0.0 0.0 0.0 0.0 0.0 44.0 0.0 0.0 0.0 0.0 21.0 0.0 0.0; 0.0 0.0 0.0 0.0 0.0 7.0 34.0 0.0 5.0 0.0 0.0 0.0 0.0 0.0 0.0 0.0 0.0 0.0 17.0 0.0; 0.0 0.0 0.0 0.0 0.0 0.0 11.0 0.0 0.0 0.0 18.0 16.0 16.0 0.0 6.0 0.0 0.0 0.0 0.0 0.0; 0.0 0.0 0.0 0.0 0.0 45.0 0.0 42.0 0.0 0.0 0.0 0.0 0.0 0.0 0.0 0.0 5.0 35.0 46.0 0.0; 0.0 0.0 0.0 0.0 0.0 0.0 0.0 2.0 0.0 0.0 0.0 0.0 0.0 5.0 0.0 0.0 1.0 0.0 0.0 0.0; 0.0 0.0 0.0 0.0 0.0 0.0 0.0 0.0 0.0 0.0 0.0 40.0 0.0 47.0 39.0 0.0 0.0 0.0 0.0 49.0; 0.0 0.0 0.0 0.0 0.0 0.0 0.0 0.0 0.0 0.0 2.0 1.0 0.0 0.0 0.0 20.0 0.0 11.0 12.0 11.0; 0.0 0.0 0.0 0.0 0.0 0.0 0.0 0.0 0.0 0.0 0.0 0.0 0.0 0.0 0.0 0.0 0.0 0.0 0.0 0.0; 0.0 0.0 0.0 0.0 0.0 0.0 0.0 0.0 0.0 0.0 37.0 44.0 0.0 0.0 6.0 0.0 7.0 0.0 13.0 0.0; 0.0 0.0 0.0 0.0 0.0 0.0 0.0 0.0 0.0 0.0 0.0 9.0 0.0 0.0 0.0 0.0 0.0 0.0 0.0 0.0; 0.0 0.0 0.0 0.0 0.0 0.0 0.0 0.0 0.0 0.0 0.0 0.0 0.0 0.0 0.0 0.0 0.0 0.0 0.0 0.0; 0.0 0.0 0.0 0.0 0.0 0.0 0.0 0.0 0.0 0.0 0.0 0.0 0.0 0.0 0.0 0.0 22.0 0.0 0.0 0.0; 0.0 0.0 0.0 0.0 0.0 0.0 0.0 0.0 0.0 0.0 0.0 0.0 0.0 0.0 4.0 0.0 42.0 0.0 45.0 0.0; 0.0 0.0 0.0 0.0 0.0 0.0 0.0 0.0 0.0 0.0 0.0 0.0 0.0 0.0 0.0 0.0 0.0 45.0 0.0 0.0; 0.0 0.0 0.0 0.0 0.0 0.0 0.0 0.0 0.0 0.0 0.0 0.0 0.0 0.0 0.0 0.0 12.0 0.0 0.0 0.0; 0.0 0.0 0.0 0.0 0.0 0.0 0.0 0.0 0.0 0.0 0.0 0.0 0.0 0.0 0.0 0.0 0.0 0.0 0.0 0.0; 0.0 0.0 0.0 0.0 0.0 0.0 0.0 0.0 0.0 0.0 0.0 0.0 0.0 0.0 0.0 0.0 0.0 0.0 0.0 0.0; 0.0 0.0 0.0 0.0 0.0 0.0 0.0 0.0 0.0 0.0 0.0 0.0 0.0 0.0 0.0 0.0 0.0 0.0 0.0 0.0; 0.0 0.0 0.0 0.0 0.0 0.0 0.0 0.0 0.0 0.0 0.0 0.0 0.0 0.0 0.0 0.0 0.0 0.0 0.0 0.0]
Q3 = [0 66 6 66 66 14 66 66 66 0 66 1 66 66 66 22 66 66 66 66; 0 0 66 66 66 17 66 66 66 66 5 66 3 66 66 66 66 15 66 66; 0 0 0 66 66 12 0 66 15 66 66 66 66 66 66 66 66 66 6 66; 0 0 0 0 19 66 3 66 66 66 6 12 9 66 13 66 66 66 66 66; 0 0 0 0 0 1 66 2 66 66 66 66 66 66 66 66 5 10 2 66; 0 0 0 0 0 0 66 13 66 66 66 66 66 2 66 66 30 66 66 66; 0 0 0 0 0 0 0 66 66 66 66 2 66 3 12 66 66 66 66 10; 0 0 0 0 0 0 0 0 66 66 0 13 66 66 66 8 66 2 3 21; 0 0 0 0 0 0 0 0 0 66 66 66 66 66 66 66 66 66 66 66; 0 0 0 0 0 0 0 0 0 0 1 3 66 66 16 66 6 66 12 66; 0 0 0 0 0 0 0 0 0 0 0 10 66 15 66 66 66 66 66 66; 0 0 0 0 0 0 0 0 0 0 0 0 66 11 66 66 66 66 66 66; 0 0 0 0 0 0 0 0 0 0 0 0 0 66 66 66 8 66 66 66; 0 0 0 0 0 0 0 0 0 0 0 0 0 0 12 66 16 66 12 66; 0 0 0 0 0 0 0 0 0 0 0 0 0 0 0 66 66 0 66 66; 0 0 0 0 0 0 0 0 0 0 0 0 0 0 0 0 6 66 66 66; 0 0 0 0 0 0 0 0 0 0 0 0 0 0 0 0 0 66 66 66; 0 0 0 0 0 0 0 0 0 0 0 0 0 0 0 0 0 0 66 66; 0 0 0 0 0 0 0 0 0 0 0 0 0 0 0 0 0 0 0 66; 0 0 0 0 0 0 0 0 0 0 0 0 0 0 0 0 0 0 0 0]
